int NumberPatients = 42
int NumberOfRooms = 9
int NumberSurgeons = 9
int NumberOfDays = 6
Duration = [66,47,92,47,66,86,98,114,47,119,98,47,119,120,97,119,66,72,157,50,201,104,78,32,32,47,66,210,60,47,119,93,32,92,47,100,47,68,75,78,46,238];
Priority = [0,0,0,0,0,0,0,0,0,0,0,0,0,0,0,0,0,0,0,0,1,0,0,0,0,0,0,0,0,0,0,0,0,0,0,0,0,0,0,0,0,0];
Waiting = [84,261,221,113,120,56,261,163,24,115,144,25,148,57,37,70,43,51,43,95,80,58,45,21,120,141,221,63,74,57,218,50,70,21,99,116,106,84,25,87,78,242];
Surgeon = [7,5,5,1,1,10,3,4,2,4,2,7,4,3,9,6,3,4,4,6,1,6,2,8,4,10,2,1,9,4,5,1,5,6,4,4,8,7,6,5,6,1];
BlockAvailability = [[[1,0],[0,0],[0,0],[0,1],[0,0],[0,1],[1,1],[0,0],[1,0]],[[0,0],[0,0],[0,0],[0,1],[0,0],[0,0],[1,0],[1,1],[0,1]],[[0,0],[1,1],[0,1],[0,0],[0,0],[1,0],[1,1],[0,0],[0,0]],[[0,0],[0,0],[0,1],[0,0],[1,0],[0,1],[1,0],[0,0],[1,1]],[[1,0],[0,0],[0,1],[0,1],[0,1],[0,0],[0,0],[0,0],[1,1]],[[0,0],[0,0],[0,0],[0,0],[1,0],[0,0],[0,0],[0,0],[0,0]]];
SurgeonAvailability = [[[1,1],[1,1],[1,0],[1,0],[1,1],[0,1]],[[1,0],[1,0],[0,1],[1,0],[1,1],[1,1]],[[1,1],[1,1],[1,1],[1,1],[1,0],[1,0]],[[0,1],[0,1],[1,1],[1,1],[0,1],[0,0]],[[1,1],[0,1],[1,1],[1,1],[0,0],[0,1]],[[0,1],[0,1],[0,1],[1,0],[0,1],[1,1]],[[1,1],[0,0],[1,1],[1,0],[1,0],[0,0]],[[1,1],[0,1],[0,1],[1,1],[1,1],[1,1]],[[1,0],[0,1],[1,0],[1,1],[1,1],[0,1]]];
